
  32    1
  10

   0   0  13 2 3 4 5 6 7 8 9 10 13 14 16 21 
   1   1   9 31 30 29 28 20 18 17 12 11 
   3   1   8 30 29 27 25 24 23 19 15 
   5   5   7 31 26 25 24 23 17 15 
   9   2   6 30 28 26 25 19 11 
   4   2   7 29 28 27 24 23 20 19 
   5   2   6 30 27 26 24 23 17 
   3   2   4 31 30 27 12 
   2   1   5 29 25 24 23 19 
   7   1   4 24 23 22 20 
  10   3   4 27 24 23 22 
  10   3   3 26 23 19 
   8   2   2 26 17 
   7   2   3 29 23 22 
   5   1   2 28 22 
   8   1   2 23 22 
   2   1   1 19 
   2   1   1 19 
  10   2   1 22 
   6   5   1 25 
   2   2   1 22 
   1   2   1 32
   2   2   1 32
   3   1   1 32
   4   4   1 32
   2   3   1 32
   5   1   1 32
   1   2   1 32
   7   1   1 32
  10   1   1 32
   6   3   1 32
   0   0   0 
